NAME: random-12-22655
TYPE: TSP
COMMENT: size=12 seed=22655
DIMENSION: 26
EDGE_WEIGHT_TYPE: EUC_2D
NODE_COORD_SECTION
+0 585 682
-0 585 682
+1 507 40
-1 265 877
+2 882 170
-2 64 826
+3 485 909
-3 968 465
+4 197 917
-4 358 302
+5 139 669
-5 474 722
+6 457 876
-6 144 432
+7 152 830
-7 454 281
+8 945 360
-8 825 523
+9 441 603
-9 448 183
+10 773 587
-10 378 731
+11 955 13
-11 417 784
+12 904 593
-12 147 734
PRECEDENCE_SECTION
+0 -0
+1 -1
+2 -2
+3 -3
+4 -4
+5 -5
+6 -6
+7 -7
+8 -8
+9 -9
+10 -10
+11 -11
+12 -12
EOF
